52
38 39 43
39 36 41
36 37 43
37 47 49
47 23 16
23 4 32
4 14 25
14 5 40
5 3 70
3 24 109
24 45 173
45 43 131
43 15 132
15 49 130
49 19 35
19 41 477
41 6 76
6 1 45
1 52 150
52 29 436
29 28 260
28 46 523
46 25 186
25 27 159
27 11 182
11 26 283
26 12 185
12 13 206
13 51 319
51 10 399
10 50 285
50 32 475
32 42 365
42 9 308
9 8 83
8 7 183
7 40 64
40 18 92
18 44 75
44 31 151
31 48 50
48 21 94
21 30 104
30 17 80
17 2 135
2 16 217
16 20 253
20 22 187
22 33 275
33 34 21
34 35 15
35 38 43

